127
100000
16897
24290
5924
17914
8079
7473
18320
1409
3795
3789
15722
1924
10335
3851
1007
4949
21116
21012
24800
16572
14491
15688
17624
21176
13826
21333
4131
14462
5796
225
12596
3864
398
1693
10358
1682
2220
9831
3736
19297
8125
23471
3
2454
1345
23097
12946
14334
4888
1357
15026
7377
15051
19959
9602
20825
11192
15413
24838
3455
14792
2590
5408
3499
19766
16799
4110
20053
16376
8925
2298
2612
5284
24288
2310
20956
6813
3716
6889
15025
14240
10372
14129
20710
24488
246
17222
16039
15376
15243
24953
1760
21497
12610
23346
22763
24112
4844
213
8258
8911
23194
21396
23625
22125
24619
11609
14114
14413
900
12455
13864
12031
6537
20993
15238
9917
10475
4761
6062
2335
8063
20456
3983
6825
3660
24146
